Minimize
  obj: x0 + x1 + x2 + x3 + x4 + x5 + x6 + x7 + x8 + x9 + x10 + x11 + x12

Subject To
  c0: x2 + x3 + x4 + x5 + x7 + x8 + x9 = 64
  c1: x2 + x3 + x4 + x11 = 23
  c2: x0 + x2 + x3 + x4 + x8 + x9 + x10 + x12 = 40
  c3: x0 + x2 + x3 + x6 + x8 + x9 = 28
  c4: x1 + x2 + x4 + x6 + x7 + x8 + x12 = 51
  c5: x2 + x3 + x4 + x8 + x9 + x11 = 31
  c6: x1 + x3 + x4 + x6 + x7 + x9 = 37
  c7: x0 + x2 + x3 + x5 + x6 + x8 + x10 + x12 = 54
  c8: x2 + x5 + x6 + x9 = 30
  c9: x2 + x3 + x8 + x9 + x10 + x12 = 30

Bounds
  x0 >= 0
  x1 >= 0
  x2 >= 0
  x3 >= 0
  x4 >= 0
  x5 >= 0
  x6 >= 0
  x7 >= 0
  x8 >= 0
  x9 >= 0
  x10 >= 0
  x11 >= 0
  x12 >= 0

Generals
  x0 x1 x2 x3 x4 x5 x6 x7 x8 x9 x10 x11 x12

End
